
Gurobi 6.5.2 (linux64) logging started Wed Mar 15 12:48:43 2017


Gurobi 6.5.2 (linux64) logging started Wed Mar 15 12:48:43 2017

Optimize a model with 101 rows, 908 columns and 1901 nonzeros
Coefficient statistics:
  Matrix range    [1e+00, 2e+00]
  Objective range [1e+00, 1e+02]
  Bounds range    [1e+00, 1e+00]
  RHS range       [1e+00, 1e+00]
Presolve removed 32 rows and 8 columns
Presolve time: 0.00s
Presolved: 69 rows, 900 columns, 1814 nonzeros
Variable types: 0 continuous, 900 integer (900 binary)

Root relaxation: objective 5.625000e+02, 77 iterations, 0.00 seconds

    Nodes    |    Current Node    |     Objective Bounds      |     Work
 Expl Unexpl |  Obj  Depth IntInf | Incumbent    BestBd   Gap | It/Node Time

     0     0  562.50000    0   20          -  562.50000      -     -    0s
     0     0  580.50000    0    4          -  580.50000      -     -    0s
     0     0  581.50000    0    6          -  581.50000      -     -    0s
     0     0  584.50000    0    6          -  584.50000      -     -    0s
     0     0  584.50000    0   10          -  584.50000      -     -    0s
     0     0  584.50000    0   10          -  584.50000      -     -    0s
     0     2  584.50000    0   10          -  584.50000      -     -    0s
*  381   345              96     678.0000000  588.50000  13.2%   3.1    0s
H  993   762                     674.0000000  589.50000  12.5%   3.6    0s
* 2240  1337              66     667.0000000  603.00000  9.60%   4.0    1s
* 2364  1196              65     642.0000000  603.00000  6.07%   4.0    1s
* 2740  1064              72     629.0000000  603.00000  4.13%   4.0    1s
* 3296  1148              35     627.0000000  604.85714  3.53%   4.0    1s
* 3689  1092              33     624.0000000  605.70000  2.93%   4.0    1s
* 6894  2883              38     622.0000000  607.00000  2.41%   3.8    2s
* 6975  2835              71     621.0000000  607.00000  2.25%   3.8    2s
H 8495  2995                     618.0000000  608.00000  1.62%   3.8    3s
 11397  3830  610.14286   52   10  618.00000  608.50000  1.54%   3.9    8s

Cutting planes:
  Gomory: 14
  Cover: 12
  MIR: 1
  Flow cover: 5
  Zero half: 10
  Lazy constraints: 1

Explored 11416 nodes (45083 simplex iterations) in 10.03 seconds
Thread count was 8 (of 8 available processors)

Time limit reached
Best objective 6.180000000000e+02, best bound 6.090000000000e+02, gap 1.4563%
